data/OOEBPP/R1000/BPP_1000_125_0.2_0.7_1.txt.ins
1000
125 125
1 87 142
2 87 451
3 87 434
4 87 82
5 87 881
6 87 367
7 87 975
8 87 888
9 87 886
10 87 241
11 86 543
12 86 700
13 86 5
14 86 179
15 86 11
16 86 709
17 86 513
18 86 981
19 86 271
20 86 343
21 86 475
22 86 415
23 86 930
24 86 271
25 86 720
26 86 57
27 86 550
28 86 528
29 86 497
30 86 410
31 86 379
32 86 63
33 85 994
34 85 767
35 85 646
36 85 644
37 85 715
38 85 638
39 85 274
40 85 100
41 85 216
42 85 65
43 85 313
44 85 548
45 85 426
46 85 341
47 85 627
48 85 25
49 85 588
50 85 37
51 85 904
52 84 745
53 84 203
54 84 386
55 84 591
56 84 813
57 84 376
58 84 709
59 84 497
60 84 68
61 84 78
62 84 916
63 84 568
64 84 320
65 84 538
66 84 757
67 84 551
68 84 986
69 83 288
70 83 641
71 83 181
72 83 451
73 83 847
74 83 281
75 83 990
76 83 105
77 83 636
78 83 822
79 83 546
80 83 14
81 83 210
82 82 344
83 82 355
84 82 943
85 82 55
86 82 736
87 82 845
88 82 14
89 82 491
90 82 691
91 82 546
92 82 285
93 82 430
94 81 657
95 81 256
96 81 20
97 81 45
98 81 691
99 81 580
100 81 351
101 81 151
102 81 637
103 81 577
104 81 732
105 81 917
106 81 437
107 81 17
108 81 807
109 81 652
110 81 371
111 81 678
112 81 300
113 81 679
114 81 865
115 80 187
116 80 69
117 80 39
118 80 880
119 80 537
120 80 851
121 80 337
122 80 987
123 80 69
124 80 511
125 80 694
126 80 469
127 80 314
128 80 628
129 80 255
130 80 100
131 80 776
132 80 434
133 80 427
134 79 920
135 79 932
136 79 916
137 79 712
138 79 591
139 79 674
140 79 409
141 79 835
142 79 952
143 79 681
144 79 885
145 79 168
146 78 885
147 78 535
148 78 544
149 78 915
150 78 8
151 78 123
152 78 426
153 78 435
154 78 10
155 78 223
156 78 939
157 78 795
158 78 95
159 78 159
160 78 868
161 78 993
162 78 799
163 77 379
164 77 926
165 77 891
166 77 389
167 77 177
168 77 449
169 77 831
170 77 35
171 77 306
172 77 350
173 77 166
174 77 380
175 77 288
176 77 782
177 77 513
178 76 441
179 76 346
180 76 162
181 76 225
182 76 902
183 76 73
184 76 335
185 76 450
186 76 543
187 76 946
188 75 953
189 75 320
190 75 16
191 75 225
192 75 847
193 75 631
194 75 58
195 75 442
196 75 662
197 75 364
198 75 995
199 75 584
200 75 55
201 74 91
202 74 73
203 74 173
204 74 296
205 74 105
206 74 277
207 74 219
208 74 770
209 74 112
210 74 1
211 74 943
212 74 560
213 74 605
214 73 837
215 73 7
216 73 279
217 73 314
218 73 831
219 73 551
220 73 240
221 73 971
222 73 147
223 73 132
224 73 158
225 73 6
226 73 504
227 72 826
228 72 165
229 72 584
230 72 607
231 72 95
232 72 380
233 72 433
234 72 505
235 72 511
236 72 685
237 72 842
238 72 548
239 72 837
240 72 890
241 72 222
242 71 0
243 71 397
244 71 524
245 71 91
246 71 850
247 71 19
248 71 607
249 71 189
250 71 968
251 71 807
252 71 681
253 71 339
254 71 454
255 71 191
256 71 574
257 71 792
258 71 814
259 71 853
260 71 750
261 70 363
262 70 489
263 70 922
264 70 20
265 70 139
266 70 719
267 70 980
268 70 725
269 70 755
270 70 59
271 70 996
272 70 979
273 70 839
274 70 698
275 70 741
276 70 670
277 70 825
278 70 74
279 70 878
280 70 532
281 70 493
282 70 139
283 69 539
284 69 179
285 69 387
286 69 815
287 69 328
288 69 304
289 69 668
290 69 966
291 69 886
292 68 367
293 68 278
294 68 323
295 68 235
296 68 354
297 68 715
298 68 193
299 68 252
300 68 770
301 68 757
302 68 518
303 68 250
304 68 442
305 68 645
306 68 12
307 68 364
308 68 654
309 68 335
310 68 963
311 68 861
312 68 962
313 68 367
314 68 925
315 67 814
316 67 891
317 67 547
318 67 562
319 67 990
320 67 857
321 67 416
322 66 830
323 66 324
324 66 967
325 66 52
326 66 257
327 66 397
328 66 148
329 66 921
330 66 870
331 66 579
332 66 75
333 66 125
334 66 448
335 66 624
336 65 349
337 65 54
338 65 533
339 65 326
340 65 319
341 65 261
342 65 478
343 65 958
344 65 434
345 65 83
346 65 934
347 65 308
348 65 394
349 65 994
350 65 477
351 65 774
352 65 670
353 65 844
354 65 163
355 65 96
356 65 213
357 64 544
358 64 69
359 64 832
360 64 333
361 64 170
362 64 635
363 64 772
364 64 880
365 64 323
366 64 398
367 63 304
368 63 98
369 63 25
370 63 825
371 63 267
372 63 868
373 63 515
374 63 364
375 63 520
376 62 255
377 62 301
378 62 108
379 62 8
380 62 13
381 62 935
382 62 920
383 62 999
384 62 640
385 62 364
386 61 123
387 61 624
388 61 37
389 61 485
390 61 31
391 61 513
392 61 498
393 61 304
394 61 116
395 61 857
396 61 25
397 61 331
398 61 496
399 61 699
400 61 220
401 61 466
402 61 81
403 61 718
404 61 269
405 61 941
406 61 824
407 61 538
408 60 979
409 60 9
410 60 1000
411 60 10
412 60 900
413 60 171
414 60 763
415 60 85
416 60 382
417 60 943
418 60 397
419 60 19
420 60 263
421 60 59
422 60 681
423 60 723
424 60 405
425 60 675
426 60 268
427 60 166
428 59 38
429 59 313
430 59 895
431 59 149
432 59 293
433 59 38
434 59 210
435 59 735
436 59 29
437 59 609
438 59 478
439 59 306
440 59 90
441 59 855
442 59 21
443 58 651
444 58 966
445 58 564
446 58 903
447 58 411
448 58 51
449 58 419
450 58 37
451 58 892
452 58 925
453 58 892
454 58 710
455 58 237
456 58 214
457 58 698
458 58 656
459 57 544
460 57 164
461 57 915
462 57 660
463 57 850
464 57 63
465 57 449
466 57 693
467 57 888
468 57 581
469 57 502
470 57 893
471 57 776
472 57 208
473 57 852
474 57 324
475 57 580
476 57 358
477 57 241
478 57 551
479 57 380
480 56 769
481 56 26
482 56 554
483 56 555
484 56 825
485 56 914
486 56 211
487 56 985
488 56 601
489 56 878
490 56 199
491 56 41
492 56 35
493 56 44
494 56 748
495 56 810
496 56 568
497 56 426
498 56 949
499 56 970
500 56 525
501 55 394
502 55 931
503 55 530
504 55 954
505 55 375
506 55 618
507 55 989
508 55 313
509 55 290
510 55 359
511 55 67
512 55 798
513 55 606
514 55 800
515 55 894
516 55 578
517 55 780
518 55 336
519 54 902
520 54 499
521 54 341
522 54 77
523 54 756
524 54 901
525 54 385
526 54 468
527 54 797
528 54 704
529 54 251
530 54 884
531 53 99
532 53 171
533 53 550
534 53 665
535 53 182
536 53 250
537 53 597
538 53 274
539 53 385
540 53 26
541 53 924
542 53 415
543 53 730
544 53 842
545 53 442
546 53 411
547 53 76
548 53 961
549 53 843
550 52 885
551 52 886
552 52 25
553 52 254
554 52 648
555 52 622
556 51 237
557 51 216
558 51 800
559 51 503
560 51 560
561 51 930
562 51 423
563 51 267
564 51 27
565 51 533
566 51 338
567 51 401
568 51 966
569 51 853
570 51 765
571 51 206
572 51 806
573 50 283
574 50 1000
575 50 459
576 50 980
577 50 890
578 50 594
579 50 186
580 50 155
581 50 381
582 50 136
583 50 65
584 50 407
585 50 862
586 50 783
587 50 69
588 50 363
589 50 598
590 49 315
591 49 498
592 49 250
593 49 737
594 49 189
595 49 454
596 49 989
597 49 56
598 49 925
599 49 650
600 49 127
601 49 579
602 49 281
603 49 7
604 49 634
605 49 146
606 48 971
607 48 214
608 48 34
609 48 965
610 48 434
611 48 930
612 48 765
613 48 232
614 48 114
615 48 427
616 48 612
617 48 374
618 48 37
619 48 406
620 48 144
621 48 240
622 48 994
623 48 14
624 47 586
625 47 157
626 47 262
627 47 385
628 47 653
629 47 242
630 47 373
631 47 39
632 47 240
633 47 312
634 47 167
635 47 726
636 47 522
637 47 449
638 47 428
639 47 713
640 47 645
641 46 137
642 46 459
643 46 240
644 46 470
645 46 421
646 46 353
647 46 449
648 46 135
649 46 52
650 46 958
651 46 836
652 46 650
653 46 699
654 46 793
655 46 206
656 45 461
657 45 264
658 45 160
659 45 621
660 45 962
661 45 369
662 45 450
663 45 128
664 45 670
665 45 317
666 45 903
667 45 637
668 45 73
669 45 150
670 45 564
671 45 253
672 45 150
673 45 509
674 45 781
675 44 985
676 44 584
677 44 23
678 44 201
679 44 438
680 44 771
681 44 300
682 44 552
683 44 545
684 44 326
685 44 688
686 44 351
687 44 138
688 44 983
689 44 533
690 44 914
691 44 925
692 44 512
693 43 487
694 43 363
695 43 473
696 43 76
697 43 172
698 43 585
699 43 182
700 43 12
701 43 759
702 43 196
703 43 145
704 42 963
705 42 279
706 42 927
707 42 705
708 42 22
709 42 530
710 42 808
711 42 770
712 42 410
713 42 916
714 42 243
715 42 461
716 42 925
717 42 559
718 42 397
719 42 713
720 42 319
721 42 788
722 42 754
723 42 263
724 42 402
725 42 268
726 42 126
727 42 9
728 42 556
729 42 881
730 42 457
731 41 122
732 41 320
733 41 83
734 41 555
735 41 282
736 41 873
737 41 79
738 41 266
739 41 261
740 41 445
741 41 141
742 41 300
743 41 680
744 41 211
745 41 581
746 41 28
747 41 683
748 40 278
749 40 53
750 40 517
751 40 637
752 40 234
753 40 591
754 39 636
755 39 84
756 39 47
757 39 876
758 39 195
759 39 83
760 39 823
761 39 944
762 39 972
763 39 619
764 39 558
765 39 303
766 39 406
767 39 604
768 39 893
769 39 298
770 38 851
771 38 278
772 38 293
773 38 841
774 38 474
775 38 2
776 38 682
777 38 531
778 38 32
779 38 921
780 38 647
781 38 985
782 38 891
783 37 447
784 37 751
785 37 694
786 37 854
787 37 956
788 37 507
789 37 805
790 37 658
791 37 731
792 37 865
793 37 93
794 37 157
795 37 871
796 37 167
797 36 713
798 36 539
799 36 369
800 36 712
801 36 236
802 36 575
803 36 987
804 36 850
805 36 128
806 36 93
807 36 797
808 36 416
809 36 852
810 36 736
811 36 886
812 36 288
813 36 850
814 36 729
815 36 541
816 35 627
817 35 713
818 35 299
819 35 852
820 35 532
821 35 990
822 35 398
823 35 555
824 35 822
825 34 373
826 34 887
827 34 447
828 34 157
829 34 323
830 34 57
831 34 886
832 34 178
833 34 220
834 34 68
835 34 602
836 34 817
837 34 480
838 34 518
839 34 331
840 34 345
841 34 180
842 34 211
843 34 990
844 34 559
845 34 985
846 33 513
847 33 86
848 33 543
849 33 804
850 33 689
851 33 981
852 33 808
853 33 144
854 33 959
855 33 899
856 33 758
857 33 475
858 33 590
859 33 876
860 33 254
861 33 915
862 33 1000
863 33 908
864 33 651
865 33 40
866 33 531
867 32 21
868 32 74
869 32 475
870 32 153
871 32 14
872 32 877
873 32 213
874 32 656
875 32 853
876 32 946
877 32 695
878 32 855
879 32 60
880 32 266
881 32 474
882 32 383
883 32 832
884 32 836
885 32 278
886 32 867
887 32 778
888 32 895
889 32 934
890 32 499
891 32 985
892 32 855
893 31 511
894 31 266
895 31 823
896 31 118
897 31 384
898 31 409
899 31 683
900 31 915
901 31 156
902 31 515
903 31 623
904 31 771
905 31 92
906 31 860
907 30 799
908 30 67
909 30 580
910 30 701
911 30 142
912 30 499
913 30 852
914 30 661
915 30 912
916 30 705
917 30 242
918 30 697
919 30 892
920 30 646
921 29 688
922 29 703
923 29 813
924 29 623
925 29 993
926 29 798
927 29 749
928 29 65
929 29 415
930 29 596
931 29 359
932 29 584
933 29 232
934 29 522
935 29 298
936 29 427
937 29 730
938 29 421
939 29 29
940 28 595
941 28 926
942 28 910
943 28 654
944 28 279
945 28 796
946 28 6
947 28 522
948 28 58
949 28 908
950 28 655
951 28 25
952 28 194
953 28 415
954 28 593
955 27 281
956 27 871
957 27 236
958 27 13
959 27 614
960 27 660
961 27 433
962 27 142
963 27 22
964 27 527
965 27 275
966 27 153
967 27 724
968 27 203
969 27 519
970 27 369
971 27 810
972 27 68
973 27 613
974 27 815
975 27 40
976 26 641
977 26 451
978 26 250
979 26 482
980 26 13
981 26 40
982 26 159
983 26 663
984 26 292
985 26 693
986 26 524
987 26 675
988 26 135
989 26 937
990 25 659
991 25 887
992 25 945
993 25 781
994 25 756
995 25 289
996 25 76
997 25 599
998 25 247
999 25 603
1000 25 613
