results/OOEBPP/BPP_1000_125_0.2_0.7_1.txt.ins.log
275,274.441,40.8935,OPT,11618,0,0,AI,0,0.04,3.21455,0.69182,39.6822,0,2,0,72,72
